Route #1: 1 8 21 20 35 41 27 42 43 28 22 15 10 9 2 3 11 16 29 36 47 46 54 58 63 53 52 51 57 62 74 73 72 81 93 94 95 82 75 76 88 96 97 98 89 90 83 69 78 77 68 64 59 70 65 79 80 84 85 86 91 99 100 92 87 67 71 61 66 56 60 50 55 44 49 48 37 38 30 24 23 17 5 12 6 4 7 14 13 25 31 39 32 40 26 18 19 33 34 45
Cost 46286
